; benchmark generated from python API
(set-info :status unknown)
(declare-fun S_4 () Real)
(declare-fun S_3 () Real)
(declare-fun C () Real)
(declare-fun S_0 () Real)
(declare-fun S_1 () Real)
(declare-fun A_0 () Real)
(declare-fun L_0 () Real)
(declare-fun S_2 () Real)
(declare-fun L0 () Real)
(declare-fun L_2 () Real)
(declare-fun A_3 () Real)
(declare-fun B () Real)
(declare-fun A_1 () Real)
(declare-fun L_1 () Real)
(declare-fun A_2 () Real)
(declare-fun A_4 () Real)
(assert
 (let (($x37 (>= L0 0.0)))
 (let (($x537 (>= C 5.0)))
 (let (($x6359 (<= (+ (* 2.0 C) S_1 (* (- 1.0) S_4)) 0.0)))
 (let (($x4185 (not (= L_0 L_2))))
 (let (($x1865 (>= S_4 (+ A_3 (* (- 1.0) L_0)))))
 (let (($x6401 (<= (+ (* 3.0 C) S_0 (* (- 1.0) S_4)) 0.0)))
 (let (($x5151 (>= S_3 (+ A_1 (* (- 1.0) L_0) (* (- 1.0) B) C))))
 (let (($x6483 (not $x5151)))
 (let (($x6419 (<= (+ C (* (- 1.0) S_4) S_2) 0.0)))
 (let (($x9015 (or (not (<= (+ L_0 B S_3 (* (- 1.0) A_3)) 0.0)) $x6419 $x6483)))
 (let ((?x761 (* 2.0 C)))
 (let ((?x542 (* (- 1.0) B)))
 (let ((?x478 (* (- 1.0) L_1)))
 (let ((?x5907 (+ A_1 ?x478 ?x542 ?x761)))
 (let (($x5546 (>= S_4 ?x5907)))
 (let ((?x484 (* (- 1.0) L_0)))
 (let ((?x752 (+ A_0 ?x484)))
 (let ((?x314 (* (- 2.0) C)))
 (let ((?x308 (* (- 1.0) L_2)))
 (let ((?x6219 (+ ?x542 ?x308 A_2 ?x314)))
 (let (($x1688 (= L_2 L_0)))
 (let (($x1158 (not (= L_0 L_1))))
 (let (($x6177 (or $x1158 $x1688 (<= (+ A_1 ?x484 L_2 (* (- 1.0) A_2) C) 0.0))))
 (let (($x1237 (not (= L_1 L_2))))
 (let (($x54 (= L_1 L_0)))
 (let (($x433 (or $x54 (<= (+ A_2 (* (- 1.0) A_1) (* (- 1.0) C)) 0.0) $x1237)))
 (let (($x36 (>= L_0 L0)))
 (let (($x111 (>= S_1 S_0)))
 (let (($x114 (>= S_2 S_1)))
 (let (($x117 (>= S_3 S_2)))
 (let (($x123 (>= A_2 A_1)))
 (let (($x124 (>= A_3 A_2)))
 (let (($x125 (>= A_4 A_3)))
 (and (<= (+ A_1 ?x478) S_4) (<= ?x752 S_3) (not (<= (+ A_1 ?x478) S_3)) $x125 $x124 $x123 $x117 $x114 $x111 $x36 (or (= L_2 L_1) (<= S_2 (+ A_2 ?x308 ?x542))) (>= S_2 (+ A_1 ?x478 ?x542)) (or $x54 (= L_2 L_1) (= (+ A_2 ?x308) (+ A_1 ?x478 C))) (>= S_0 (+ ?x542 ?x478 A_1 ?x314)) (>= S_1 (+ ?x542 ?x478 A_1 (* (- 1.0) C))) (or $x54 (not (<= L_1 L_0))) $x433 (or $x54 (<= S_1 (+ A_1 ?x478 ?x542))) (<= (+ ?x542 ?x478 A_1 (* (- 1.0) C)) ?x752) (or $x54 (<= S_0 (+ ?x542 ?x478 A_1 (* (- 1.0) C)))) (>= S_4 (+ A_2 ?x308 ?x542 C)) (or $x54 (<= S_2 (+ A_1 ?x478 ?x542 C))) (or $x54 (<= S_3 ?x5907)) (or $x5546 (<= (+ A_3 (* (- 1.0) A_2) (* (- 1.0) C)) 0.0)) (or (<= L_2 L_1) (<= S_4 (+ A_2 ?x308 ?x542 ?x761))) (>= S_3 (+ A_2 ?x308 ?x542)) (or (<= S_3 (+ A_2 ?x308 ?x542 C)) $x1158 $x1688) (<= S_4 (+ A_4 ?x308)) $x6177 (or (not (<= L_2 L_0)) $x5151) (or $x54 (<= S_4 (+ A_1 ?x478 ?x542 (* 3.0 C)))) (>= S_3 (+ A_1 ?x478 ?x542 C)) (or (= L_2 L_1) (not (<= L_2 L_1))) (or (= L_2 L_1) (<= S_1 (+ ?x542 ?x308 A_2 (* (- 1.0) C)))) (or (= L_2 L_1) (<= S_0 ?x6219)) (>= S_1 ?x6219) (<= ?x6219 ?x752) (>= S_0 (+ ?x542 ?x308 A_2 (* (- 3.0) C))) (>= S_2 (+ ?x542 ?x308 A_2 (* (- 1.0) C))) (<= (+ C S_1 (* (- 1.0) S_3)) 0.0) (<= (+ ?x761 S_0 (* (- 1.0) S_3)) 0.0) (<= (+ L_0 ?x314 (* (- 1.0) A_0) S_2) 0.0) (<= (+ ?x314 (* (- 1.0) S_1) S_2) 0.0) (or (<= (+ A_3 (* (- 1.0) A_2) (* (- 1.0) C)) 0.0) $x6419) (or (<= (+ A_3 (* (- 1.0) A_2) (* (- 1.0) C)) 0.0) $x6401) (<= (+ (* (- 3.0) C) (* (- 1.0) S_0) S_2) 0.0) (or (<= (+ A_3 (* (- 1.0) A_2) (* (- 1.0) C)) 0.0) $x6359) (or (>= S_4 (+ A_3 ?x478)) $x5546) (<= S_4 (+ A_3 ?x478 C)) (<= (+ L_0 (* (- 3.0) C) S_3 (* (- 1.0) A_0)) 0.0) (<= (+ (* (- 4.0) C) (* (- 1.0) S_0) S_3) 0.0) (<= (+ (* (- 3.0) C) (* (- 1.0) S_1) S_3) 0.0) (<= (+ ?x314 S_3 (* (- 1.0) S_2)) 0.0) (or (<= 0.0 (+ L_0 B S_3 (* (- 1.0) A_3))) $x6419 $x6483) $x9015 (or $x1865 $x4185 $x6419) (or $x1865 $x4185 $x6401) (or $x1865 $x4185 $x6359) (<= (+ (* (- 4.0) C) (* (- 1.0) S_1) S_4) 0.0) (<= (+ L_0 (* (- 4.0) C) (* (- 1.0) A_0) S_4) 0.0) (<= (+ (* (- 5.0) C) (* (- 1.0) S_0) S_4) 0.0) (<= (+ (* (- 3.0) C) S_4 (* (- 1.0) S_2)) 0.0) $x537 $x37 (<= (+ L_0 S_0 (* (- 1.0) A_0)) 0.0) (<= (+ C S_0 (* (- 1.0) S_2)) 0.0) (<= (+ L_0 (* (- 1.0) C) S_1 (* (- 1.0) A_0)) 0.0) (<= (+ ?x314 S_1 (* (- 1.0) S_0)) 0.0) (<= (+ ?x314 (* (- 1.0) S_3) S_4) 0.0))))))))))))))))))))))))))))))))))))
(check-sat)
